1-19-28-46-47-56-65-66-68-78-70-71-80-81-72-62-51-43-34-24-23-13-12-2-1
1-11-22-21-41-50-60-61-69-79-88-87-86-95-94-85-75-57-38-29-20-1
1-31-89-90-99-98-97-96-77-59-49-40-1
1-4-5-6-7-8-9-18-17-27-35-36-44-45-54-63-53-52-42-32-33-26-25-16-15-14-3-1
1-30-39-48-58-67-76-84-83-93-92-91-82-73-74-64-55-37-10-1